## avogadro generated ORCA input file 
# Advanced Mode
# 
! B3LYP OPT def2-SVP NormalPrint defgrid2 NormalSCF 

! CPCM
%cpcm
epsilon 69.0
refrac 1.34
end

%scf
	MaxIter 125
	CNVDIIS 1
	CNVSOSCF 1 
end

* xyz -6 1
   O        2.59357        2.83893        1.16050
   S        3.97081        1.82066        1.05172
   O        4.43390        3.15080        1.66331
   O        3.02824        1.20531        2.09604
   O        4.91467        1.44451        2.43476
   O        2.83085       -3.24712       -1.34036
   S        3.83674       -2.27810       -0.34296
   O        4.98397       -3.14027        0.20357
   O        3.05064       -1.85090        0.90516
   O        4.49261       -0.88635       -1.10335
   O       -0.18615        1.45597       -2.39492
   S        1.33247        0.73166       -2.05634
   O        1.36494        0.29480       -0.58548
   O        1.45469       -0.57870       -2.84764
   O        2.69948        1.71715       -2.38118
  Al       -1.24312        1.81337        1.42465
  Al       -1.28717       -2.27581       -0.52180
   H        0.10552        1.21455        2.03363
   H       -2.32573        0.64628        1.29791
   H       -1.80318        2.95899        2.38590
   H        0.28083       -2.41815       -0.26169
   H       -1.60956       -0.78999       -1.00953
   H       -1.73749       -3.31208       -1.65031
*

