## avogadro generated ORCA input file 
# Advanced Mode
# 
! B3LYP OPT def2-SVP NormalPrint defgrid2 NormalSCF 

! CPCM
%cpcm
epsilon 69.0
refrac 1.34
end

%scf
	MaxIter 125
	CNVDIIS 1
	CNVSOSCF 1 
end

* xyz -10 1
   O        0.94029        0.07810        0.72640
   S        2.22173        0.18293        0.02726
   O        3.14176       -0.66796        0.78318
   O        2.11239       -0.24583       -1.36776
   O        2.69245        1.56737       -0.03280
  Na        1.67891       -1.25253        2.21218
  Na        2.76410        1.61822       -2.15788
*

