## avogadro generated ORCA input file 
# Advanced Mode
# 
! B3LYP OPT def2-SVP NormalPrint defgrid2 NormalSCF 

! CPCM
%cpcm
epsilon 69.0
refrac 1.34
end

%scf
	MaxIter 125
	CNVDIIS 1
	CNVSOSCF 1 
end

* xyz 0 1
   N        1.54851        0.95823        0.08536
   H        2.56584        1.01585        0.07610
   H        1.23692        1.35055       -0.80197
   H        1.23691        1.60893        0.80499
*

