## avogadro generated ORCA input file 
# Advanced Mode
# 
! B3LYP OPT def2-SVP NormalPrint defgrid2 NormalSCF 

! CPCM
%cpcm
epsilon 69.0
refrac 1.34
end

%scf
	MaxIter 125
	CNVDIIS 1
	CNVSOSCF 1 
end

* xyz -9 1
   O        1.42950        1.52917       -0.23411
  Al        3.00447        1.29892        0.15508
   O        3.10965        0.24469        1.40509
  Na        0.86215       -1.64443        0.04450
   H        3.78350        0.70698       -1.10726
*

