## avogadro generated ORCA input file 
# Advanced Mode
# 
! B3LYP OPT def2-SVP NormalPrint defgrid2 NormalSCF 

! CPCM
%cpcm
epsilon 69.0
refrac 1.34
end

%scf
	MaxIter 125
	CNVDIIS 1
	CNVSOSCF 1 
end

* xyz 0 1
   C        1.18197       -0.27323       -0.38025
   C        0.55045        0.93276        0.37559
   N       -0.91958        1.01780        0.27083
   C       -1.60088       -0.18436        0.81528
   C       -1.96559       -1.12979       -0.32652
   O       -1.53112       -2.26904       -0.42890
   O       -2.79975       -0.58075       -1.23991
   C       -1.42634        2.25989        0.89669
   C       -2.85285        2.55835        0.42098
   O       -3.49883        1.83006       -0.32548
   O       -3.35624        3.70895        0.91939
   N        2.66721       -0.30942       -0.55057
   C        3.38973       -0.09690        0.74759
   C        3.11594       -1.20189        1.76361
   O        3.13980       -1.03032        2.97314
   O        2.88392       -2.40778        1.19761
   C        3.06908        0.78721       -1.49668
   C        4.45206        0.51640       -2.08369
   O        5.23206        1.38452       -2.44074
   O        4.70611       -0.80923       -2.20910
   H        0.72955       -0.34713       -1.37832
   H        0.88628       -1.19649        0.12820
   H        0.96937        1.85234       -0.04882
   H        0.84237        0.90195        1.43259
   H       -2.53748        0.04953        1.33620
   H       -0.97993       -0.71416        1.54735
   H       -3.04676        0.35196       -1.01311
   H       -0.81554        3.11275        0.57793
   H       -1.41026        2.18937        1.98982
   H       -2.74924        4.21035        1.49707
   H        3.12837        0.86649        1.19846
   H        4.47221       -0.11072        0.57617
   H        2.83985       -2.31900        0.22314
   H        3.07589        1.76482       -1.00246
   H        2.38588        0.82602       -2.35329
   H        3.92994       -1.30462       -1.87159
*

