## avogadro generated ORCA input file 
# Advanced Mode
# 
! B3LYP OPT def2-SVP NormalPrint defgrid2 NormalSCF 

! CPCM
%cpcm
epsilon 69.0
refrac 1.34
end

%scf
	MaxIter 125
	CNVDIIS 1
	CNVSOSCF 1 
end

* xyz 0 1
   C       -1.19405        0.00800        0.00106
   C       -0.37037        1.11158        0.00054
   N        0.92753        0.67121       -0.00006
   C        0.94169       -0.69929        0.00007
   C       -0.36356       -1.13822        0.00075
   H       -2.27620        0.02619        0.00159
   H       -0.59577        2.16951        0.00055
   H        1.74697        1.26493       -0.00052
   H        1.87677       -1.24302       -0.00034
   H       -0.68337       -2.17220        0.00101
*

