## avogadro generated ORCA input file 
# Advanced Mode
# 
! B3LYP OPT def2-SVP NormalPrint defgrid2 NormalSCF 

! CPCM
%cpcm
epsilon 69.0
refrac 1.34
end

%scf
	MaxIter 125
	CNVDIIS 1
	CNVSOSCF 1 
end

* xyz 0 1
   C       -0.75978        1.16699        0.00561
   C        0.61593        1.18874        0.01205
   N        1.37744        0.07879        0.01509
   C        0.70755       -1.08447        0.01141
   N       -0.62713       -1.22766        0.00510
   C       -1.33512       -0.08283        0.00232
   H       -1.34976        2.07226        0.00327
   H        1.16307        2.12690        0.01505
   H        1.29961       -1.99293        0.01375
   H       -2.41431       -0.20461       -0.00278
*

