## avogadro generated ORCA input file 
# Advanced Mode
# 
! B3LYP OPT def2-SVP NormalPrint defgrid2 NormalSCF 

! CPCM
%cpcm
epsilon 69.0
refrac 1.34
end

%scf
	MaxIter 125
	CNVDIIS 1
	CNVSOSCF 1 
end

* xyz 0 1
   C        1.38002        0.95096        1.01517
   N        2.22562        0.05960        0.21226
   C        3.42430        0.77786       -0.25449
   C        4.47647        0.62436        0.83831
   C        3.95081       -0.47531        1.75354
   C        2.78062       -1.08664        0.97719
   H        3.22020       -1.77614        0.23919
   C        1.77704       -1.92045        1.73633
   C        0.68767       -2.46884        1.05666
   N       -0.25785       -3.25731        1.62106
   C       -0.11559       -3.52289        2.93436
   C        0.92890       -3.04242        3.70444
   C        1.88840       -2.23635        3.09396
   H        1.04437        1.79598        0.40272
   H        1.88719        1.35726        1.89673
   H        0.46892        0.44257        1.34609
   H        3.23603        1.82718       -0.50820
   H        3.78163        0.29565       -1.17310
   H        4.60502        1.55513        1.40149
   H        5.44629        0.35182        0.40873
   H        3.63197       -0.02805        2.70254
   H        4.72507       -1.21596        1.98087
   H        0.54036       -2.27468       -0.00396
   H       -0.88594       -4.15520        3.36562
   H        0.99816       -3.29333        4.75692
   H        2.71547       -1.87017        3.69458
*

