## avogadro generated ORCA input file 
# Advanced Mode
# 
! B3LYP OPT def2-SVP NormalPrint defgrid2 NormalSCF 

! CPCM
%cpcm
epsilon 69.0
refrac 1.34
end

%scf
	MaxIter 125
	CNVDIIS 1
	CNVSOSCF 1 
end

* xyz -8 1
  Mg        0.98774        0.06875        0.01937
  Cl       -0.83482        0.76590        0.83902
  Cl        2.81029       -0.62841       -0.80029
*

