## avogadro generated ORCA input file 
# Advanced Mode
# 
! B3LYP OPT def2-SVP NormalPrint defgrid2 NormalSCF 

! CPCM
%cpcm
epsilon 69.0
refrac 1.34
end

%scf
	MaxIter 125
	CNVDIIS 1
	CNVSOSCF 1 
end

* xyz 0 1
   C        1.06638        0.09433       -0.07344
   N        2.50689        0.06312       -0.07386
   C        3.33974        1.15079       -0.07559
   N        4.60831        0.79175       -0.07554
   C        4.57507       -0.57002       -0.07368
   C        3.30001       -1.04823       -0.07261
   C        2.98806       -2.43469       -0.07061
   O        1.83501       -2.85539       -0.06973
   N        4.12692       -3.24546       -0.06977
   C        5.46187       -2.78890       -0.07088
   O        6.40469       -3.58619       -0.07008
   N        5.66348       -1.40827       -0.07291
   C        7.00606       -0.85676       -0.07412
   C        3.94201       -4.68340       -0.06764
   H        0.72421        1.13244       -0.07453
   H        0.70751       -0.41061        0.82684
   H        0.70694       -0.41271       -0.97230
   H        2.97582        2.17070       -0.07684
   H        7.76877       -1.63981       -0.07352
   H        7.13934       -0.23879        0.81950
   H        7.13859       -0.24089       -0.96931
   H        2.88812       -4.97218       -0.06673
   H        4.42554       -5.10283        0.82078
   H        4.42471       -5.10536       -0.95530
*

